instances/A-n8-k3-m0-b3ampl_.txt
set K:= 1	2	3;
set C_H:= 1	2	3	4;
set C_S:= 5	6;
set C_F:= 7	8;
set M:= 9	10	11	12	13	14;
set L_B:= 15	16	17;
set A1:=
(0,*) 1 2 3 4 7 8 9 10 11 12 13 14 15 16 17 18
(1,*) 0 2 3 4 7 8 9 10 11 12 13 14 15 16 17 18
(2,*) 0 1 3 4 7 8 9 10 11 12 13 14 15 16 17 18
(3,*) 0 1 2 4 7 8 9 10 11 12 13 14 15 16 17 18
(4,*) 0 1 2 3 7 8 9 10 11 12 13 14 15 16 17 18
(7,*) 0 1 2 3 4 8 9 10 11 12 13 14 15 16 17 18
(8,*) 0 1 2 3 4 7 9 10 11 12 13 14 15 16 17 18
(9,*) 0 1 2 3 4 7 8 10 11 12 13 14 15 16 17 18
(10,*) 0 1 2 3 4 7 8 9 11 12 13 14 15 16 17 18
(11,*) 0 1 2 3 4 7 8 9 10 12 13 14 15 16 17 18
(12,*) 0 1 2 3 4 7 8 9 10 11 13 14 15 16 17 18
(13,*) 0 1 2 3 4 7 8 9 10 11 12 14 15 16 17 18
(14,*) 0 1 2 3 4 7 8 9 10 11 12 13 15 16 17 18
(15,*) 0 1 2 3 4 7 8 9 10 11 12 13 14 16 17 18
(16,*) 0 1 2 3 4 7 8 9 10 11 12 13 14 15 17 18
(17,*) 0 1 2 3 4 7 8 9 10 11 12 13 14 15 16 18
(18,*) 0 1 2 3 4 7 8 9 10 11 12 13 14 15 16 17
;
set A2:=
;
param BigM:=99999;
param n:= 3;
param d:=
1	8
2	6
3	2
4	8
5	16
6	1
7	24
8	24
;
param Q:=100;
param e:
	9	10	11	12	13	14	15	16	17:=
5		0		0		0		0		0		1		0		0		0	
6		0		0		0		0		0		0		0		1		0	
7		0		0		0		1		0		0		0		0		0	
8		0		0		0		0		0		0		1		0		1	
;
param p:=
1	3
2	3
3	3
;
param G:=
9	88
10	82
11	94
12	79
13	96
14	91
15	89
16	79
17	88
;
param s:=
0	0
1	10
2	10
3	10
4	10
7	10
8	10
9	10
10	10
11	10
12	10
13	10
14	10
15	10
16	10
17	10
;
param t:
	0	1	2	3	4	5	6	7	8	9	10	11	12	13	14	15	16	17	18:=
0	0.0	78.03	75.58	62.29	36.24	37.05	76.84	75.96	25.24	20.81	83.49	64.94	61.19	13.0	62.8	39.45	67.8	39.36	0.0
1	78.03	0.0	7.07	64.85	84.38	51.61	32.53	93.98	56.3	82.28	18.03	51.09	81.49	86.41	30.41	47.38	29.53	49.25	78.03
2	75.58	7.07	0.0	68.45	85.01	46.75	38.42	97.58	55.32	81.58	25.0	44.18	84.43	84.76	23.77	48.01	34.21	50.04	75.58
3	62.29	64.85	68.45	0.0	37.8	71.11	38.01	29.15	41.77	48.47	55.23	93.24	18.11	59.77	76.42	31.3	35.9	29.55	62.29
4	36.24	84.38	85.01	37.8	0.0	63.81	68.43	41.19	32.89	15.81	81.91	91.71	28.44	27.46	82.01	37.05	62.03	35.13	36.24
5	37.05	51.61	46.75	71.11	63.81	0.0	65.38	94.81	32.53	52.55	63.69	28.46	79.03	49.5	27.73	39.81	56.14	41.59	37.05
6	76.84	32.53	38.42	38.01	68.43	65.38	0.0	65.76	51.61	72.47	18.03	76.66	56.08	80.62	55.97	37.64	9.49	38.21	76.84
7	75.96	93.98	97.58	29.15	41.19	94.81	65.76	0.0	62.68	56.72	83.55	119.5	15.81	68.59	104.2	56.59	64.85	54.45	75.96
8	25.24	56.3	55.32	41.77	32.89	32.53	51.61	62.68	0.0	26.31	59.2	59.36	46.87	30.53	49.24	14.32	42.64	14.56	25.24
9	20.81	82.28	81.58	48.47	15.81	52.55	72.47	56.72	26.31	0.0	83.24	80.99	43.0	12.0	74.33	36.24	64.64	34.99	20.81
10	83.49	18.03	25.0	55.23	81.91	63.69	18.03	83.55	59.2	83.24	0.0	68.07	73.06	89.63	47.01	47.01	20.22	48.3	83.49
11	64.94	51.09	44.18	93.24	91.71	28.46	76.66	119.5	59.36	80.99	68.07	0.0	104.0	77.67	21.1	62.94	68.95	65.05	64.94
12	61.19	81.49	84.43	18.11	28.44	79.03	56.08	15.81	46.87	43.0	73.06	104.0	0.0	55.0	89.31	41.23	53.34	39.05	61.19
13	13.0	86.41	84.76	59.77	27.46	49.5	80.62	68.59	30.53	12.0	89.63	77.67	55.0	0.0	74.17	43.19	72.18	42.43	13.0
14	62.8	30.41	23.77	76.42	82.01	27.73	55.97	104.2	49.24	74.33	47.01	21.1	89.31	74.17	0.0	48.37	48.75	50.61	62.8
15	39.45	47.38	48.01	31.3	37.05	39.81	37.64	56.59	14.32	36.24	47.01	62.94	41.23	43.19	48.37	0.0	29.0	2.24	39.45
16	67.8	29.53	34.21	35.9	62.03	56.14	9.49	64.85	42.64	64.64	20.22	68.95	53.34	72.18	48.75	29.0	0.0	29.83	67.8
17	39.36	49.25	50.04	29.55	35.13	41.59	38.21	54.45	14.56	34.99	48.3	65.05	39.05	42.43	50.61	2.24	29.83	0.0	39.36
;
